c This file is generated by v2cnfMtr
c Generated on Mon Nov  2 15:48:53 2015
p cnf 440 1217
1 54 0
-1 -54 0
2 55 0
-2 -55 0
4 56 0
-4 -56 0
6 57 0
-6 -57 0
207 58 0
-207 -58 0
208 59 0
-208 -59 0
12 60 0
-12 -60 0
14 61 0
-14 -61 0
16 62 0
-16 -62 0
18 63 0
-18 -63 0
20 64 0
-20 -64 0
22 65 0
-22 -65 0
212 66 0
-212 -66 0
26 67 0
-26 -67 0
28 68 0
-28 -68 0
214 69 0
-214 -69 0
32 70 0
-32 -70 0
34 71 0
-34 -71 0
-54 -2 -72 0
54 72 0
2 72 0
3 55 73 0
-3 -73 0
-55 -73 0
210 55 74 0
-210 -74 0
-55 -74 0
-56 -6 -75 0
56 75 0
6 75 0
-58 -208 -76 0
58 76 0
208 76 0
-60 -14 -77 0
60 77 0
14 77 0
-62 -18 -78 0
62 78 0
18 78 0
-64 -22 -79 0
64 79 0
22 79 0
-66 -26 -80 0
66 80 0
26 80 0
-68 -214 -81 0
68 81 0
214 81 0
-70 -34 -82 0
70 82 0
34 82 0
7 57 83 0
-7 -83 0
-57 -83 0
9 57 84 0
-9 -84 0
-57 -84 0
11 59 85 0
-11 -85 0
-59 -85 0
13 59 86 0
-13 -86 0
-59 -86 0
15 61 87 0
-15 -87 0
-61 -87 0
17 61 88 0
-17 -88 0
-61 -88 0
19 63 89 0
-19 -89 0
-63 -89 0
21 63 90 0
-21 -90 0
-63 -90 0
215 65 91 0
-215 -91 0
-65 -91 0
25 65 92 0
-25 -92 0
-65 -92 0
27 67 93 0
-27 -93 0
-67 -93 0
216 67 94 0
-216 -94 0
-67 -94 0
213 69 95 0
-213 -95 0
-69 -95 0
33 69 96 0
-33 -96 0
-69 -96 0
35 71 97 0
-35 -97 0
-71 -97 0
36 71 98 0
-36 -98 0
-71 -98 0
-72 -75 -76 -77 -78 -79 -80 -81 -82 99 0
72 -99 0
75 -99 0
76 -99 0
77 -99 0
78 -99 0
79 -99 0
80 -99 0
81 -99 0
82 -99 0
99 100 0
-99 -100 0
99 101 0
-99 -101 0
99 47 0
-99 -47 0
-100 -72 -102 0
100 72 -102 0
100 -72 102 0
-100 72 102 0
-100 -75 -103 0
100 75 -103 0
100 -75 103 0
-100 75 103 0
-100 -76 -104 0
100 76 -104 0
100 -76 104 0
-100 76 104 0
-100 -77 -105 0
100 77 -105 0
100 -77 105 0
-100 77 105 0
-100 -78 -106 0
100 78 -106 0
100 -78 106 0
-100 78 106 0
-100 -79 -107 0
100 79 -107 0
100 -79 107 0
-100 79 107 0
-1 -101 -108 0
1 108 0
101 108 0
-100 -80 -109 0
100 80 -109 0
100 -80 109 0
-100 80 109 0
-101 -4 -110 0
101 110 0
4 110 0
-100 -81 -111 0
100 81 -111 0
100 -81 111 0
-100 81 111 0
-101 -207 -112 0
101 112 0
207 112 0
-100 -82 -113 0
100 82 -113 0
100 -82 113 0
-100 82 113 0
-101 -12 -114 0
101 114 0
12 114 0
-101 -16 -115 0
101 115 0
16 115 0
-101 -20 -116 0
101 116 0
20 116 0
-101 -212 -117 0
101 117 0
212 117 0
-101 -28 -118 0
101 118 0
28 118 0
-101 -32 -119 0
101 119 0
32 119 0
-102 -73 -120 0
102 120 0
73 120 0
-102 -74 -121 0
102 121 0
74 121 0
-103 -83 -122 0
103 122 0
83 122 0
-104 -85 -123 0
104 123 0
85 123 0
-105 -87 -124 0
105 124 0
87 124 0
-106 -89 -125 0
106 125 0
89 125 0
-107 -91 -126 0
107 126 0
91 126 0
-109 -93 -127 0
109 127 0
93 127 0
-111 -95 -128 0
111 128 0
95 128 0
-113 -97 -129 0
113 129 0
97 129 0
-103 -84 -130 0
103 130 0
84 130 0
-104 -86 -131 0
104 131 0
86 131 0
-105 -88 -132 0
105 132 0
88 132 0
-106 -90 -133 0
106 133 0
90 133 0
-107 -92 -134 0
107 134 0
92 134 0
-109 -94 -135 0
109 135 0
94 135 0
-111 -96 -136 0
111 136 0
96 136 0
-113 -98 -137 0
113 137 0
98 137 0
-120 -122 -123 -124 -125 -126 -127 -128 -129 138 0
120 -138 0
122 -138 0
123 -138 0
124 -138 0
125 -138 0
126 -138 0
127 -138 0
128 -138 0
129 -138 0
121 139 0
-121 -139 0
130 140 0
-130 -140 0
131 141 0
-131 -141 0
132 142 0
-132 -142 0
133 143 0
-133 -143 0
134 144 0
-134 -144 0
135 145 0
-135 -145 0
136 146 0
-136 -146 0
137 147 0
-137 -147 0
138 148 0
-138 -148 0
138 149 0
-138 -149 0
138 211 0
-138 -211 0
-148 -120 -150 0
148 120 -150 0
148 -120 150 0
-148 120 150 0
-148 -122 -151 0
148 122 -151 0
148 -122 151 0
-148 122 151 0
-148 -123 -152 0
148 123 -152 0
148 -123 152 0
-148 123 152 0
-148 -124 -153 0
148 124 -153 0
148 -124 153 0
-148 124 153 0
-3 -149 -154 0
3 154 0
149 154 0
-148 -125 -155 0
148 125 -155 0
148 -125 155 0
-148 125 155 0
-149 -7 -156 0
149 156 0
7 156 0
-148 -126 -157 0
148 126 -157 0
148 -126 157 0
-148 126 157 0
-149 -11 -158 0
149 158 0
11 158 0
-148 -127 -159 0
148 127 -159 0
148 -127 159 0
-148 127 159 0
-149 -15 -160 0
149 160 0
15 160 0
-148 -128 -161 0
148 128 -161 0
148 -128 161 0
-148 128 161 0
-149 -19 -162 0
149 162 0
19 162 0
-148 -129 -163 0
148 129 -163 0
148 -129 163 0
-148 129 163 0
-149 -215 -164 0
149 164 0
215 164 0
-149 -27 -165 0
149 165 0
27 165 0
-149 -213 -166 0
149 166 0
213 166 0
-149 -35 -167 0
149 167 0
35 167 0
-150 -139 -168 0
150 168 0
139 168 0
-151 -140 -169 0
151 169 0
140 169 0
-152 -141 -170 0
152 170 0
141 170 0
-153 -142 -171 0
153 171 0
142 171 0
-155 -143 -172 0
155 172 0
143 172 0
-157 -144 -173 0
157 173 0
144 173 0
-159 -145 -174 0
159 174 0
145 174 0
-161 -146 -175 0
161 175 0
146 175 0
-163 -147 -176 0
163 176 0
147 176 0
-168 -169 -170 -171 -172 -173 -174 -175 -176 177 0
168 -177 0
169 -177 0
170 -177 0
171 -177 0
172 -177 0
173 -177 0
174 -177 0
175 -177 0
176 -177 0
177 178 0
-177 -178 0
177 49 0
-177 -49 0
-210 -178 -179 0
210 179 0
178 179 0
-178 -9 -180 0
178 180 0
9 180 0
-178 -13 -181 0
178 181 0
13 181 0
-178 -17 -182 0
178 182 0
17 182 0
-178 -21 -183 0
178 183 0
21 183 0
-178 -25 -184 0
178 184 0
25 184 0
-178 -216 -185 0
178 185 0
216 185 0
-178 -33 -186 0
178 186 0
33 186 0
-178 -36 -187 0
178 187 0
36 187 0
-2 -108 -154 -179 -188 0
2 188 0
108 188 0
154 188 0
179 188 0
-110 -156 -180 -6 -189 0
110 189 0
156 189 0
180 189 0
6 189 0
-112 -158 -181 -208 -190 0
112 190 0
158 190 0
181 190 0
208 190 0
-114 -160 -182 -14 -191 0
114 191 0
160 191 0
182 191 0
14 191 0
-115 -162 -183 -18 -192 0
115 192 0
162 192 0
183 192 0
18 192 0
-116 -164 -184 -22 -193 0
116 193 0
164 193 0
184 193 0
22 193 0
-117 -165 -185 -26 -194 0
117 194 0
165 194 0
185 194 0
26 194 0
-118 -166 -186 -214 -195 0
118 195 0
166 195 0
186 195 0
214 195 0
-119 -167 -187 -34 -196 0
119 196 0
167 196 0
187 196 0
34 196 0
188 197 0
-188 -197 0
-189 -190 -191 -192 -193 -194 -195 -196 198 0
189 -198 0
190 -198 0
191 -198 0
192 -198 0
193 -198 0
194 -198 0
195 -198 0
196 -198 0
191 199 0
-191 -199 0
193 200 0
-193 -200 0
194 201 0
-194 -201 0
195 202 0
-195 -202 0
197 198 209 0
-197 -209 0
-198 -209 0
-190 -199 -203 0
190 203 0
199 203 0
-190 -191 -200 -192 -204 0
190 204 0
191 204 0
200 204 0
192 204 0
-192 -191 -201 -205 0
192 205 0
191 205 0
201 205 0
-190 -191 -194 -202 -206 0
190 206 0
191 206 0
194 206 0
202 206 0
-189 -190 -203 -192 -51 0
189 51 0
190 51 0
203 51 0
192 51 0
-189 -190 -204 -205 -52 0
189 52 0
190 52 0
204 52 0
205 52 0
-189 -203 -204 -206 -53 0
189 53 0
203 53 0
204 53 0
206 53 0
-37 -8 -207 0
37 8 -207 0
37 -8 207 0
-37 8 207 0
-38 -10 -208 0
38 10 -208 0
38 -10 208 0
-38 10 208 0
-39 -24 -212 0
39 24 -212 0
39 -24 212 0
-39 24 212 0
-40 -30 -214 0
40 30 -214 0
40 -30 214 0
-40 30 214 0
-41 -5 -210 0
41 5 -210 0
41 -5 210 0
-41 5 210 0
-42 -23 -215 0
42 23 -215 0
42 -23 215 0
-42 23 215 0
-43 -29 -216 0
43 29 -216 0
43 -29 216 0
-43 29 216 0
-44 -31 -213 0
44 31 -213 0
44 -31 213 0
-44 31 213 0
-45 -211 -48 0
45 211 -48 0
45 -211 48 0
-45 211 48 0
-46 -209 -50 0
46 209 -50 0
46 -209 50 0
-46 209 50 0
c The second circuit:
217 270 0
-217 -270 0
218 271 0
-218 -271 0
220 272 0
-220 -272 0
222 273 0
-222 -273 0
423 274 0
-423 -274 0
424 275 0
-424 -275 0
228 276 0
-228 -276 0
230 277 0
-230 -277 0
232 278 0
-232 -278 0
234 279 0
-234 -279 0
236 280 0
-236 -280 0
238 281 0
-238 -281 0
428 282 0
-428 -282 0
242 283 0
-242 -283 0
244 284 0
-244 -284 0
430 285 0
-430 -285 0
248 286 0
-248 -286 0
250 287 0
-250 -287 0
-270 -218 -288 0
270 288 0
218 288 0
219 271 289 0
-219 -289 0
-271 -289 0
426 271 290 0
-426 -290 0
-271 -290 0
-272 -222 -291 0
272 291 0
222 291 0
-274 -424 -292 0
274 292 0
424 292 0
-276 -230 -293 0
276 293 0
230 293 0
-278 -234 -294 0
278 294 0
234 294 0
-280 -238 -295 0
280 295 0
238 295 0
-282 -242 -296 0
282 296 0
242 296 0
-284 -430 -297 0
284 297 0
430 297 0
-286 -250 -298 0
286 298 0
250 298 0
223 273 299 0
-223 -299 0
-273 -299 0
225 273 300 0
-225 -300 0
-273 -300 0
227 275 301 0
-227 -301 0
-275 -301 0
229 275 302 0
-229 -302 0
-275 -302 0
231 277 303 0
-231 -303 0
-277 -303 0
233 277 304 0
-233 -304 0
-277 -304 0
235 279 305 0
-235 -305 0
-279 -305 0
237 279 306 0
-237 -306 0
-279 -306 0
431 281 307 0
-431 -307 0
-281 -307 0
241 281 308 0
-241 -308 0
-281 -308 0
243 283 309 0
-243 -309 0
-283 -309 0
432 283 310 0
-432 -310 0
-283 -310 0
429 285 311 0
-429 -311 0
-285 -311 0
249 285 312 0
-249 -312 0
-285 -312 0
251 287 313 0
-251 -313 0
-287 -313 0
252 287 314 0
-252 -314 0
-287 -314 0
-288 -291 -292 -293 -294 -295 -296 -297 -298 315 0
288 -315 0
291 -315 0
292 -315 0
293 -315 0
294 -315 0
295 -315 0
296 -315 0
297 -315 0
298 -315 0
315 316 0
-315 -316 0
315 317 0
-315 -317 0
315 263 0
-315 -263 0
-316 -288 -318 0
316 288 -318 0
316 -288 318 0
-316 288 318 0
-316 -291 -319 0
316 291 -319 0
316 -291 319 0
-316 291 319 0
-316 -292 -320 0
316 292 -320 0
316 -292 320 0
-316 292 320 0
-316 -293 -321 0
316 293 -321 0
316 -293 321 0
-316 293 321 0
-316 -294 -322 0
316 294 -322 0
316 -294 322 0
-316 294 322 0
-316 -295 -323 0
316 295 -323 0
316 -295 323 0
-316 295 323 0
-217 -317 -324 0
217 324 0
317 324 0
-316 -296 -325 0
316 296 -325 0
316 -296 325 0
-316 296 325 0
-317 -220 -326 0
317 326 0
220 326 0
-316 -297 -327 0
316 297 -327 0
316 -297 327 0
-316 297 327 0
-317 -423 -328 0
317 328 0
423 328 0
-316 -298 -329 0
316 298 -329 0
316 -298 329 0
-316 298 329 0
-317 -228 -330 0
317 330 0
228 330 0
-317 -232 -331 0
317 331 0
232 331 0
-317 -236 -332 0
317 332 0
236 332 0
-317 -428 -333 0
317 333 0
428 333 0
-317 -244 -334 0
317 334 0
244 334 0
-317 -248 -335 0
317 335 0
248 335 0
-318 -289 -336 0
318 336 0
289 336 0
-318 -290 -337 0
318 337 0
290 337 0
-319 -299 -338 0
319 338 0
299 338 0
-320 -301 -339 0
320 339 0
301 339 0
-321 -303 -340 0
321 340 0
303 340 0
-322 -305 -341 0
322 341 0
305 341 0
-323 -307 -342 0
323 342 0
307 342 0
-325 -309 -343 0
325 343 0
309 343 0
-327 -311 -344 0
327 344 0
311 344 0
-329 -313 -345 0
329 345 0
313 345 0
-319 -300 -346 0
319 346 0
300 346 0
-320 -302 -347 0
320 347 0
302 347 0
-321 -304 -348 0
321 348 0
304 348 0
-322 -306 -349 0
322 349 0
306 349 0
-323 -308 -350 0
323 350 0
308 350 0
-325 -310 -351 0
325 351 0
310 351 0
-327 -312 -352 0
327 352 0
312 352 0
-329 -314 -353 0
329 353 0
314 353 0
-336 -338 -339 -340 -341 -342 -343 -344 -345 354 0
336 -354 0
338 -354 0
339 -354 0
340 -354 0
341 -354 0
342 -354 0
343 -354 0
344 -354 0
345 -354 0
337 355 0
-337 -355 0
346 356 0
-346 -356 0
347 357 0
-347 -357 0
348 358 0
-348 -358 0
349 359 0
-349 -359 0
350 360 0
-350 -360 0
351 361 0
-351 -361 0
352 362 0
-352 -362 0
353 363 0
-353 -363 0
354 364 0
-354 -364 0
354 365 0
-354 -365 0
354 427 0
-354 -427 0
-364 -336 -366 0
364 336 -366 0
364 -336 366 0
-364 336 366 0
-364 -338 -367 0
364 338 -367 0
364 -338 367 0
-364 338 367 0
-364 -339 -368 0
364 339 -368 0
364 -339 368 0
-364 339 368 0
-364 -340 -369 0
364 340 -369 0
364 -340 369 0
-364 340 369 0
-219 -365 -370 0
219 370 0
365 370 0
-364 -341 -371 0
364 341 -371 0
364 -341 371 0
-364 341 371 0
-365 -223 -372 0
365 372 0
223 372 0
-364 -342 -373 0
364 342 -373 0
364 -342 373 0
-364 342 373 0
-365 -227 -374 0
365 374 0
227 374 0
-364 -343 -375 0
364 343 -375 0
364 -343 375 0
-364 343 375 0
-365 -231 -376 0
365 376 0
231 376 0
-364 -344 -377 0
364 344 -377 0
364 -344 377 0
-364 344 377 0
-365 -235 -378 0
365 378 0
235 378 0
-364 -345 -379 0
364 345 -379 0
364 -345 379 0
-364 345 379 0
-365 -431 -380 0
365 380 0
431 380 0
-365 -243 -381 0
365 381 0
243 381 0
-365 -429 -382 0
365 382 0
429 382 0
-365 -251 -383 0
365 383 0
251 383 0
-366 -355 -384 0
366 384 0
355 384 0
-367 -356 -385 0
367 385 0
356 385 0
-368 -357 -386 0
368 386 0
357 386 0
-369 -358 -387 0
369 387 0
358 387 0
-371 -359 -388 0
371 388 0
359 388 0
-373 -360 -389 0
373 389 0
360 389 0
-375 -361 -390 0
375 390 0
361 390 0
-377 -362 -391 0
377 391 0
362 391 0
-379 -363 -392 0
379 392 0
363 392 0
-384 -385 -386 -387 -388 -389 -390 -391 -392 393 0
384 -393 0
385 -393 0
386 -393 0
387 -393 0
388 -393 0
389 -393 0
390 -393 0
391 -393 0
392 -393 0
393 394 0
-393 -394 0
393 265 0
-393 -265 0
-426 -394 -395 0
426 395 0
394 395 0
-394 -225 -396 0
394 396 0
225 396 0
-394 -229 -397 0
394 397 0
229 397 0
-394 -233 -398 0
394 398 0
233 398 0
-394 -237 -399 0
394 399 0
237 399 0
-394 -241 -400 0
394 400 0
241 400 0
-394 -432 -401 0
394 401 0
432 401 0
-394 -249 -402 0
394 402 0
249 402 0
-394 -252 -403 0
394 403 0
252 403 0
-218 -324 -370 -395 -404 0
218 404 0
324 404 0
370 404 0
395 404 0
-326 -372 -396 -222 -405 0
326 405 0
372 405 0
396 405 0
222 405 0
-328 -374 -397 -424 -406 0
328 406 0
374 406 0
397 406 0
424 406 0
-330 -376 -398 -230 -407 0
330 407 0
376 407 0
398 407 0
230 407 0
-331 -378 -399 -234 -408 0
331 408 0
378 408 0
399 408 0
234 408 0
-332 -380 -400 -238 -409 0
332 409 0
380 409 0
400 409 0
238 409 0
-333 -381 -401 -242 -410 0
333 410 0
381 410 0
401 410 0
242 410 0
-334 -382 -402 -430 -411 0
334 411 0
382 411 0
402 411 0
430 411 0
-335 -383 -403 -250 -412 0
335 412 0
383 412 0
403 412 0
250 412 0
404 413 0
-404 -413 0
-405 -406 -407 -408 -409 -410 -411 -412 414 0
405 -414 0
406 -414 0
407 -414 0
408 -414 0
409 -414 0
410 -414 0
411 -414 0
412 -414 0
407 415 0
-407 -415 0
409 416 0
-409 -416 0
410 417 0
-410 -417 0
411 418 0
-411 -418 0
413 414 425 0
-413 -425 0
-414 -425 0
-406 -415 -419 0
406 419 0
415 419 0
-406 -407 -416 -408 -420 0
406 420 0
407 420 0
416 420 0
408 420 0
-408 -407 -417 -421 0
408 421 0
407 421 0
417 421 0
-406 -407 -410 -418 -422 0
406 422 0
407 422 0
410 422 0
418 422 0
-405 -406 -419 -408 -267 0
405 267 0
406 267 0
419 267 0
408 267 0
-405 -406 -420 -421 -268 0
405 268 0
406 268 0
420 268 0
421 268 0
-405 -419 -420 -422 -269 0
405 269 0
419 269 0
420 269 0
422 269 0
-253 -224 -423 0
253 224 -423 0
253 -224 423 0
-253 224 423 0
-254 -226 -424 0
254 226 -424 0
254 -226 424 0
-254 226 424 0
-255 -240 -428 0
255 240 -428 0
255 -240 428 0
-255 240 428 0
-256 -246 -430 0
256 246 -430 0
256 -246 430 0
-256 246 430 0
-257 -221 -426 0
257 221 -426 0
257 -221 426 0
-257 221 426 0
-258 -239 -431 0
258 239 -431 0
258 -239 431 0
-258 239 431 0
-259 -245 -432 0
259 245 -432 0
259 -245 432 0
-259 245 432 0
-260 -247 -429 0
260 247 -429 0
260 -247 429 0
-260 247 429 0
-261 -427 -264 0
261 427 -264 0
261 -427 264 0
-261 427 264 0
-262 -425 -266 0
262 425 -266 0
262 -425 266 0
-262 425 266 0
c Force PIs of 2 ckts to be the same:
1 -217 0
-1 217 0
2 -218 0
-2 218 0
3 -219 0
-3 219 0
4 -220 0
-4 220 0
5 -221 0
-5 221 0
6 -222 0
-6 222 0
7 -223 0
-7 223 0
8 -224 0
-8 224 0
9 -225 0
-9 225 0
10 -226 0
-10 226 0
11 -227 0
-11 227 0
12 -228 0
-12 228 0
13 -229 0
-13 229 0
14 -230 0
-14 230 0
15 -231 0
-15 231 0
16 -232 0
-16 232 0
17 -233 0
-17 233 0
18 -234 0
-18 234 0
19 -235 0
-19 235 0
20 -236 0
-20 236 0
21 -237 0
-21 237 0
22 -238 0
-22 238 0
23 -239 0
-23 239 0
24 -240 0
-24 240 0
25 -241 0
-25 241 0
26 -242 0
-26 242 0
27 -243 0
-27 243 0
28 -244 0
-28 244 0
29 -245 0
-29 245 0
30 -246 0
-30 246 0
31 -247 0
-31 247 0
32 -248 0
-32 248 0
33 -249 0
-33 249 0
34 -250 0
-34 250 0
35 -251 0
-35 251 0
36 -252 0
-36 252 0
c XOR outputs of 2 ckts:
-47 -263 -433 0
47 263 -433 0
47 -263 433 0
-47 263 433 0
-48 -264 -434 0
48 264 -434 0
48 -264 434 0
-48 264 434 0
-49 -265 -435 0
49 265 -435 0
49 -265 435 0
-49 265 435 0
-50 -266 -436 0
50 266 -436 0
50 -266 436 0
-50 266 436 0
-51 -267 -437 0
51 267 -437 0
51 -267 437 0
-51 267 437 0
-52 -268 -438 0
52 268 -438 0
52 -268 438 0
-52 268 438 0
-53 -269 -439 0
53 269 -439 0
53 -269 439 0
-53 269 439 0
c The last OR gate of the miter:
433 434 435 436 437 438 439 -440 0
-433 440 0
-434 440 0
-435 440 0
-436 440 0
-437 440 0
-438 440 0
-439 440 0
440 0
